NAME: Golden_12
TYPE: CVRP
COMMENT: 1107.19
DIMENSION: 484
CAPACITY: 1000
VEHICLES: 19
EDGE_WEIGHT_TYPE: FUNCTION
EDGE_WEIGHT_FORMAT: EUC_2D
NODE_COORD_TYPE: TWOD_COORDS
NODE_COORD_SECTION
1 -1.00000 -20.00000
2 1.00000 -20.00000
3 -2.00000 -19.00000
4 0.00000 -19.00000
5 2.00000 -19.00000
6 -3.00000 -18.00000
7 -1.00000 -18.00000
8 1.00000 -18.00000
9 3.00000 -18.00000
10 -4.00000 -17.00000
11 -2.00000 -17.00000
12 0.00000 -17.00000
13 2.00000 -17.00000
14 4.00000 -17.00000
15 -5.00000 -16.00000
16 -3.00000 -16.00000
17 -1.00000 -16.00000
18 1.00000 -16.00000
19 3.00000 -16.00000
20 5.00000 -16.00000
21 -6.00000 -15.00000
22 -4.00000 -15.00000
23 -2.00000 -15.00000
24 0.00000 -15.00000
25 2.00000 -15.00000
26 4.00000 -15.00000
27 6.00000 -15.00000
28 -7.00000 -14.00000
29 -5.00000 -14.00000
30 -3.00000 -14.00000
31 -1.00000 -14.00000
32 1.00000 -14.00000
33 3.00000 -14.00000
34 5.00000 -14.00000
35 7.00000 -14.00000
36 -8.00000 -13.00000
37 -6.00000 -13.00000
38 -4.00000 -13.00000
39 -2.00000 -13.00000
40 0.00000 -13.00000
41 2.00000 -13.00000
42 4.00000 -13.00000
43 6.00000 -13.00000
44 8.00000 -13.00000
45 -9.00000 -12.00000
46 -7.00000 -12.00000
47 -5.00000 -12.00000
48 -3.00000 -12.00000
49 -1.00000 -12.00000
50 1.00000 -12.00000
51 3.00000 -12.00000
52 5.00000 -12.00000
53 7.00000 -12.00000
54 9.00000 -12.00000
55 -10.00000 -11.00000
56 -8.00000 -11.00000
57 -6.00000 -11.00000
58 -4.00000 -11.00000
59 -2.00000 -11.00000
60 0.00000 -11.00000
61 2.00000 -11.00000
62 4.00000 -11.00000
63 6.00000 -11.00000
64 8.00000 -11.00000
65 10.00000 -11.00000
66 -11.00000 -10.00000
67 -9.00000 -10.00000
68 -7.00000 -10.00000
69 -5.00000 -10.00000
70 -3.00000 -10.00000
71 -1.00000 -10.00000
72 1.00000 -10.00000
73 3.00000 -10.00000
74 5.00000 -10.00000
75 7.00000 -10.00000
76 9.00000 -10.00000
77 11.00000 -10.00000
78 -12.00000 -9.00000
79 -10.00000 -9.00000
80 -8.00000 -9.00000
81 -6.00000 -9.00000
82 -4.00000 -9.00000
83 -2.00000 -9.00000
84 0.00000 -9.00000
85 2.00000 -9.00000
86 4.00000 -9.00000
87 6.00000 -9.00000
88 8.00000 -9.00000
89 10.00000 -9.00000
90 12.00000 -9.00000
91 -13.00000 -8.00000
92 -11.00000 -8.00000
93 -9.00000 -8.00000
94 -7.00000 -8.00000
95 -5.00000 -8.00000
96 -3.00000 -8.00000
97 -1.00000 -8.00000
98 1.00000 -8.00000
99 3.00000 -8.00000
100 5.00000 -8.00000
101 7.00000 -8.00000
102 9.00000 -8.00000
103 11.00000 -8.00000
104 13.00000 -8.00000
105 -14.00000 -7.00000
106 -12.00000 -7.00000
107 -10.00000 -7.00000
108 -8.00000 -7.00000
109 -6.00000 -7.00000
110 -4.00000 -7.00000
111 -2.00000 -7.00000
112 0.00000 -7.00000
113 2.00000 -7.00000
114 4.00000 -7.00000
115 6.00000 -7.00000
116 8.00000 -7.00000
117 10.00000 -7.00000
118 12.00000 -7.00000
119 14.00000 -7.00000
120 -15.00000 -6.00000
121 -13.00000 -6.00000
122 -11.00000 -6.00000
123 -9.00000 -6.00000
124 -7.00000 -6.00000
125 -5.00000 -6.00000
126 -3.00000 -6.00000
127 -1.00000 -6.00000
128 1.00000 -6.00000
129 3.00000 -6.00000
130 5.00000 -6.00000
131 7.00000 -6.00000
132 9.00000 -6.00000
133 11.00000 -6.00000
134 13.00000 -6.00000
135 15.00000 -6.00000
136 -16.00000 -5.00000
137 -14.00000 -5.00000
138 -12.00000 -5.00000
139 -10.00000 -5.00000
140 -8.00000 -5.00000
141 -6.00000 -5.00000
142 -4.00000 -5.00000
143 -2.00000 -5.00000
144 0.00000 -5.00000
145 2.00000 -5.00000
146 4.00000 -5.00000
147 6.00000 -5.00000
148 8.00000 -5.00000
149 10.00000 -5.00000
150 12.00000 -5.00000
151 14.00000 -5.00000
152 16.00000 -5.00000
153 -17.00000 -4.00000
154 -15.00000 -4.00000
155 -13.00000 -4.00000
156 -11.00000 -4.00000
157 -9.00000 -4.00000
158 -7.00000 -4.00000
159 -5.00000 -4.00000
160 -3.00000 -4.00000
161 -1.00000 -4.00000
162 1.00000 -4.00000
163 3.00000 -4.00000
164 5.00000 -4.00000
165 7.00000 -4.00000
166 9.00000 -4.00000
167 11.00000 -4.00000
168 13.00000 -4.00000
169 15.00000 -4.00000
170 17.00000 -4.00000
171 -18.00000 -3.00000
172 -16.00000 -3.00000
173 -14.00000 -3.00000
174 -12.00000 -3.00000
175 -10.00000 -3.00000
176 -8.00000 -3.00000
177 -6.00000 -3.00000
178 -4.00000 -3.00000
179 -2.00000 -3.00000
180 0.00000 -3.00000
181 2.00000 -3.00000
182 4.00000 -3.00000
183 6.00000 -3.00000
184 8.00000 -3.00000
185 10.00000 -3.00000
186 12.00000 -3.00000
187 14.00000 -3.00000
188 16.00000 -3.00000
189 18.00000 -3.00000
190 -19.00000 -2.00000
191 -17.00000 -2.00000
192 -15.00000 -2.00000
193 -13.00000 -2.00000
194 -11.00000 -2.00000
195 -9.00000 -2.00000
196 -7.00000 -2.00000
197 -5.00000 -2.00000
198 -3.00000 -2.00000
199 -1.00000 -2.00000
200 1.00000 -2.00000
201 3.00000 -2.00000
202 5.00000 -2.00000
203 7.00000 -2.00000
204 9.00000 -2.00000
205 11.00000 -2.00000
206 13.00000 -2.00000
207 15.00000 -2.00000
208 17.00000 -2.00000
209 19.00000 -2.00000
210 -20.00000 -1.00000
211 -18.00000 -1.00000
212 -16.00000 -1.00000
213 -14.00000 -1.00000
214 -12.00000 -1.00000
215 -10.00000 -1.00000
216 -8.00000 -1.00000
217 -6.00000 -1.00000
218 -4.00000 -1.00000
219 -2.00000 -1.00000
220 0.00000 -1.00000
221 2.00000 -1.00000
222 4.00000 -1.00000
223 6.00000 -1.00000
224 8.00000 -1.00000
225 10.00000 -1.00000
226 12.00000 -1.00000
227 14.00000 -1.00000
228 16.00000 -1.00000
229 18.00000 -1.00000
230 20.00000 -1.00000
231 -21.00000 0.00000
232 -19.00000 0.00000
233 -17.00000 0.00000
234 -15.00000 0.00000
235 -13.00000 0.00000
236 -11.00000 0.00000
237 -9.00000 0.00000
238 -7.00000 0.00000
239 -5.00000 0.00000
240 -3.00000 0.00000
241 -1.00000 0.00000
242 1.00000 0.00000
243 3.00000 0.00000
244 5.00000 0.00000
245 7.00000 0.00000
246 9.00000 0.00000
247 11.00000 0.00000
248 13.00000 0.00000
249 15.00000 0.00000
250 17.00000 0.00000
251 19.00000 0.00000
252 21.00000 0.00000
253 -20.00000 1.00000
254 -18.00000 1.00000
255 -16.00000 1.00000
256 -14.00000 1.00000
257 -12.00000 1.00000
258 -10.00000 1.00000
259 -8.00000 1.00000
260 -6.00000 1.00000
261 -4.00000 1.00000
262 -2.00000 1.00000
263 0.00000 1.00000
264 2.00000 1.00000
265 4.00000 1.00000
266 6.00000 1.00000
267 8.00000 1.00000
268 10.00000 1.00000
269 12.00000 1.00000
270 14.00000 1.00000
271 16.00000 1.00000
272 18.00000 1.00000
273 20.00000 1.00000
274 -19.00000 2.00000
275 -17.00000 2.00000
276 -15.00000 2.00000
277 -13.00000 2.00000
278 -11.00000 2.00000
279 -9.00000 2.00000
280 -7.00000 2.00000
281 -5.00000 2.00000
282 -3.00000 2.00000
283 -1.00000 2.00000
284 1.00000 2.00000
285 3.00000 2.00000
286 5.00000 2.00000
287 7.00000 2.00000
288 9.00000 2.00000
289 11.00000 2.00000
290 13.00000 2.00000
291 15.00000 2.00000
292 17.00000 2.00000
293 19.00000 2.00000
294 -18.00000 3.00000
295 -16.00000 3.00000
296 -14.00000 3.00000
297 -12.00000 3.00000
298 -10.00000 3.00000
299 -8.00000 3.00000
300 -6.00000 3.00000
301 -4.00000 3.00000
302 -2.00000 3.00000
303 0.00000 3.00000
304 2.00000 3.00000
305 4.00000 3.00000
306 6.00000 3.00000
307 8.00000 3.00000
308 10.00000 3.00000
309 12.00000 3.00000
310 14.00000 3.00000
311 16.00000 3.00000
312 18.00000 3.00000
313 -17.00000 4.00000
314 -15.00000 4.00000
315 -13.00000 4.00000
316 -11.00000 4.00000
317 -9.00000 4.00000
318 -7.00000 4.00000
319 -5.00000 4.00000
320 -3.00000 4.00000
321 -1.00000 4.00000
322 1.00000 4.00000
323 3.00000 4.00000
324 5.00000 4.00000
325 7.00000 4.00000
326 9.00000 4.00000
327 11.00000 4.00000
328 13.00000 4.00000
329 15.00000 4.00000
330 17.00000 4.00000
331 -16.00000 5.00000
332 -14.00000 5.00000
333 -12.00000 5.00000
334 -10.00000 5.00000
335 -8.00000 5.00000
336 -6.00000 5.00000
337 -4.00000 5.00000
338 -2.00000 5.00000
339 0.00000 5.00000
340 2.00000 5.00000
341 4.00000 5.00000
342 6.00000 5.00000
343 8.00000 5.00000
344 10.00000 5.00000
345 12.00000 5.00000
346 14.00000 5.00000
347 16.00000 5.00000
348 -15.00000 6.00000
349 -13.00000 6.00000
350 -11.00000 6.00000
351 -9.00000 6.00000
352 -7.00000 6.00000
353 -5.00000 6.00000
354 -3.00000 6.00000
355 -1.00000 6.00000
356 1.00000 6.00000
357 3.00000 6.00000
358 5.00000 6.00000
359 7.00000 6.00000
360 9.00000 6.00000
361 11.00000 6.00000
362 13.00000 6.00000
363 15.00000 6.00000
364 -14.00000 7.00000
365 -12.00000 7.00000
366 -10.00000 7.00000
367 -8.00000 7.00000
368 -6.00000 7.00000
369 -4.00000 7.00000
370 -2.00000 7.00000
371 0.00000 7.00000
372 2.00000 7.00000
373 4.00000 7.00000
374 6.00000 7.00000
375 8.00000 7.00000
376 10.00000 7.00000
377 12.00000 7.00000
378 14.00000 7.00000
379 -13.00000 8.00000
380 -11.00000 8.00000
381 -9.00000 8.00000
382 -7.00000 8.00000
383 -5.00000 8.00000
384 -3.00000 8.00000
385 -1.00000 8.00000
386 1.00000 8.00000
387 3.00000 8.00000
388 5.00000 8.00000
389 7.00000 8.00000
390 9.00000 8.00000
391 11.00000 8.00000
392 13.00000 8.00000
393 -12.00000 9.00000
394 -10.00000 9.00000
395 -8.00000 9.00000
396 -6.00000 9.00000
397 -4.00000 9.00000
398 -2.00000 9.00000
399 0.00000 9.00000
400 2.00000 9.00000
401 4.00000 9.00000
402 6.00000 9.00000
403 8.00000 9.00000
404 10.00000 9.00000
405 12.00000 9.00000
406 -11.00000 10.00000
407 -9.00000 10.00000
408 -7.00000 10.00000
409 -5.00000 10.00000
410 -3.00000 10.00000
411 -1.00000 10.00000
412 1.00000 10.00000
413 3.00000 10.00000
414 5.00000 10.00000
415 7.00000 10.00000
416 9.00000 10.00000
417 11.00000 10.00000
418 -10.00000 11.00000
419 -8.00000 11.00000
420 -6.00000 11.00000
421 -4.00000 11.00000
422 -2.00000 11.00000
423 0.00000 11.00000
424 2.00000 11.00000
425 4.00000 11.00000
426 6.00000 11.00000
427 8.00000 11.00000
428 10.00000 11.00000
429 -9.00000 12.00000
430 -7.00000 12.00000
431 -5.00000 12.00000
432 -3.00000 12.00000
433 -1.00000 12.00000
434 1.00000 12.00000
435 3.00000 12.00000
436 5.00000 12.00000
437 7.00000 12.00000
438 9.00000 12.00000
439 -8.00000 13.00000
440 -6.00000 13.00000
441 -4.00000 13.00000
442 -2.00000 13.00000
443 0.00000 13.00000
444 2.00000 13.00000
445 4.00000 13.00000
446 6.00000 13.00000
447 8.00000 13.00000
448 -7.00000 14.00000
449 -5.00000 14.00000
450 -3.00000 14.00000
451 -1.00000 14.00000
452 1.00000 14.00000
453 3.00000 14.00000
454 5.00000 14.00000
455 7.00000 14.00000
456 -6.00000 15.00000
457 -4.00000 15.00000
458 -2.00000 15.00000
459 0.00000 15.00000
460 2.00000 15.00000
461 4.00000 15.00000
462 6.00000 15.00000
463 -5.00000 16.00000
464 -3.00000 16.00000
465 -1.00000 16.00000
466 1.00000 16.00000
467 3.00000 16.00000
468 5.00000 16.00000
469 -4.00000 17.00000
470 -2.00000 17.00000
471 0.00000 17.00000
472 2.00000 17.00000
473 4.00000 17.00000
474 -3.00000 18.00000
475 -1.00000 18.00000
476 1.00000 18.00000
477 3.00000 18.00000
478 -2.00000 19.00000
479 0.00000 19.00000
480 2.00000 19.00000
481 -1.00000 20.00000
482 1.00000 20.00000
483 0.00000 21.00000
DEMAND_SECTION
1 300
2 300
3 180
4 300
5 180
6 128
7 180
8 180
9 128
10 100
11 128
12 180
13 128
14 100
15 81
16 100
17 128
18 128
19 100
20 81
21 69
22 81
23 100
24 128
25 100
26 81
27 69
28 60
29 69
30 81
31 100
32 100
33 81
34 69
35 60
36 52
37 60
38 69
39 81
40 100
41 81
42 69
43 60
44 52
45 47
46 52
47 60
48 69
49 81
50 81
51 69
52 60
53 52
54 47
55 42
56 47
57 52
58 60
59 69
60 81
61 69
62 60
63 52
64 47
65 42
66 39
67 42
68 47
69 52
70 60
71 69
72 69
73 60
74 52
75 47
76 42
77 39
78 36
79 39
80 42
81 47
82 52
83 60
84 69
85 60
86 52
87 47
88 42
89 39
90 36
91 33
92 36
93 39
94 42
95 47
96 52
97 60
98 60
99 52
100 47
101 42
102 39
103 36
104 33
105 31
106 33
107 36
108 39
109 42
110 47
111 52
112 60
113 52
114 47
115 42
116 39
117 36
118 33
119 31
120 29
121 31
122 33
123 36
124 39
125 42
126 47
127 52
128 52
129 47
130 42
131 39
132 36
133 33
134 31
135 29
136 27
137 29
138 31
139 33
140 36
141 39
142 42
143 47
144 52
145 47
146 42
147 39
148 36
149 33
150 31
151 29
152 27
153 25
154 27
155 29
156 31
157 33
158 36
159 39
160 42
161 47
162 47
163 42
164 39
165 36
166 33
167 31
168 29
169 27
170 25
171 24
172 25
173 27
174 29
175 31
176 33
177 36
178 39
179 42
180 47
181 42
182 39
183 36
184 33
185 31
186 29
187 27
188 25
189 24
190 23
191 24
192 25
193 27
194 29
195 31
196 33
197 36
198 39
199 42
200 42
201 39
202 36
203 33
204 31
205 29
206 27
207 25
208 24
209 23
210 21
211 23
212 24
213 25
214 27
215 29
216 31
217 33
218 36
219 39
220 42
221 39
222 36
223 33
224 31
225 29
226 27
227 25
228 24
229 23
230 21
231 20
232 21
233 23
234 24
235 25
236 27
237 29
238 31
239 33
240 36
241 39
242 39
243 36
244 33
245 31
246 29
247 27
248 25
249 24
250 23
251 21
252 20
253 20
254 21
255 23
256 24
257 25
258 27
259 29
260 31
261 33
262 36
263 39
264 36
265 33
266 31
267 29
268 27
269 25
270 24
271 23
272 21
273 20
274 20
275 21
276 23
277 24
278 25
279 27
280 29
281 31
282 33
283 36
284 36
285 33
286 31
287 29
288 27
289 25
290 24
291 23
292 21
293 20
294 20
295 21
296 23
297 24
298 25
299 27
300 29
301 31
302 33
303 36
304 33
305 31
306 29
307 27
308 25
309 24
310 23
311 21
312 20
313 20
314 21
315 23
316 24
317 25
318 27
319 29
320 31
321 33
322 33
323 31
324 29
325 27
326 25
327 24
328 23
329 21
330 20
331 20
332 21
333 23
334 24
335 25
336 27
337 29
338 31
339 33
340 31
341 29
342 27
343 25
344 24
345 23
346 21
347 20
348 20
349 21
350 23
351 24
352 25
353 27
354 29
355 31
356 31
357 29
358 27
359 25
360 24
361 23
362 21
363 20
364 20
365 21
366 23
367 24
368 25
369 27
370 29
371 31
372 29
373 27
374 25
375 24
376 23
377 21
378 20
379 20
380 21
381 23
382 24
383 25
384 27
385 29
386 29
387 27
388 25
389 24
390 23
391 21
392 20
393 20
394 21
395 23
396 24
397 25
398 27
399 29
400 27
401 25
402 24
403 23
404 21
405 20
406 20
407 21
408 23
409 24
410 25
411 27
412 27
413 25
414 24
415 23
416 21
417 20
418 20
419 21
420 23
421 24
422 25
423 27
424 25
425 24
426 23
427 21
428 20
429 20
430 21
431 23
432 24
433 25
434 25
435 24
436 23
437 21
438 20
439 20
440 21
441 23
442 24
443 25
444 24
445 23
446 21
447 20
448 20
449 21
450 23
451 24
452 24
453 23
454 21
455 20
456 20
457 21
458 23
459 24
460 23
461 21
462 20
463 20
464 21
465 23
466 23
467 21
468 20
469 20
470 21
471 23
472 21
473 20
474 20
475 21
476 21
477 20
478 20
479 21
480 20
481 20
482 20
483 20
DEPOT_SECTION
0.00000 -21.00000
-1
EOF
